n = 100;
C = 497;
w = [801,104,687,929,902,864,575,155,752,836,682,143,239,534,470,737,788,971,271,581,461,66,710,425,49,925,266,303,796,70,277,775,317,108,138,884,111,189,445,965,237,613,548,31,577,464,164,1,294,397,832,457,916,861,942,861,301,850,185,845,30,122,646,55,423,398,953,914,735,886,280,655,770,40,396,652,516,872,515,428,2,210,632,500,455,118,951,678,884,364,211,307,940,56,475,181,319,335,709,411];
p = [4015,530,3445,4655,4520,4330,2885,785,3770,4190,3420,725,1205,2680,2360,3695,3950,4865,1365,2915,2315,340,3560,2135,255,4635,1340,1525,3990,360,1395,3885,1595,550,700,4430,565,955,2235,4835,1195,3075,2750,165,2895,2330,830,15,1480,1995,4170,2295,4590,4315,4720,4315,1515,4260,935,4235,160,620,3240,285,2125,2000,4775,4580,3685,4440,1410,3285,3860,210,1990,3270,2590,4370,2585,2150,20,1060,3170,2510,2285,600,4765,3400,4430,1830,1065,1545,4710,290,2385,915,1605,1685,3555,2065];
